
  12    4
  10   10   10   10

   0   0   0   0   0   4 2 3 4 5 
   3  10  10  10  10   3 8 7 6 
   6  10  10  10  10   3 11 7 6 
   6  10  10  10  10   1 6 
  10  10  10  10  10   1 6 
   4  10  10  10  10   2 10 9 
   8  10  10  10  10   2 10 9 
   2  10  10  10  10   1 11 
   1  10  10  10  10   1 12
   4  10  10  10  10   1 12
   1  10  10  10  10   1 12
   0   0   0   0   0   0 
